=obj= -38
x0                                                        1.000000
x1                                                        1.000000
x2                                                        1.000000
x3                                                        1.000000
x4                                                        1.000000
x5                                                        1.000000
x6                                                        1.000000
x7                                                        1.000000
x8                                                        1.000000
x9                                                        1.000000
x10                                                       1.000000
x11                                                       1.000000
x12                                                       1.000000
x13                                                       1.000000
x14                                                       1.000000
x15                                                       1.000000
x16                                                       1.000000
x17                                                       1.000000
x18                                                       1.000000
x19                                                       1.000000
x20                                                       1.000000
x21                                                       1.000000
x22                                                       1.000000
x23                                                       1.000000
x24                                                       1.000000
x25                                                       1.000000
x26                                                       1.000000
x27                                                       1.000000
x28                                                       1.000000
x29                                                       1.000000
x30                                                       1.000000
x31                                                       1.000000
x32                                                       1.000000
x33                                                       1.000000
x34                                                       1.000000
x35                                                       1.000000
x36                                                       1.000000
x37                                                       1.000000
c0_5_4                                                    1.000000
c0_4_17                                                   1.000000
c0_18_5                                                   1.000000
c0_17_18                                                  1.000000
c1_0_1                                                    1.000000
c1_2_0                                                    1.000000
c1_1_2                                                    1.000000
c2_2_1                                                    1.000000
c2_1_59                                                   1.000000
c2_43_2                                                   1.000000
c2_23_44                                                  1.000000
c2_59_23                                                  1.000000
c2_44_43                                                  1.000000
c3_8_9                                                    1.000000
c3_19_8                                                   1.000000
c3_9_42                                                   1.000000
c3_44_19                                                  1.000000
c3_42_43                                                  1.000000
c3_43_44                                                  1.000000
c4_6_5                                                    1.000000
c4_5_41                                                   1.000000
c4_25_6                                                   1.000000
c4_26_25                                                  1.000000
c4_41_26                                                  1.000000
c5_24_35                                                  1.000000
c5_53_24                                                  1.000000
c5_35_34                                                  1.000000
c5_34_49                                                  1.000000
c5_49_48                                                  1.000000
c5_48_50                                                  1.000000
c5_50_52                                                  1.000000
c5_52_53                                                  1.000000
c6_4_3                                                    1.000000
c6_3_52                                                   1.000000
c6_7_4                                                    1.000000
c6_51_7                                                   1.000000
c6_50_51                                                  1.000000
c6_52_50                                                  1.000000
c7_7_6                                                    1.000000
c7_6_21                                                   1.000000
c7_8_7                                                    1.000000
c7_16_8                                                   1.000000
c7_17_16                                                  1.000000
c7_22_17                                                  1.000000
c7_21_22                                                  1.000000
c8_34_40                                                  1.000000
c8_49_34                                                  1.000000
c8_37_36                                                  1.000000
c8_36_49                                                  1.000000
c8_40_37                                                  1.000000
c9_10_8                                                   1.000000
c9_8_16                                                   1.000000
c9_11_10                                                  1.000000
c9_12_11                                                  1.000000
c9_13_12                                                  1.000000
c9_14_13                                                  1.000000
c9_15_14                                                  1.000000
c9_16_15                                                  1.000000
c10_2_3                                                   1.000000
c10_55_2                                                  1.000000
c10_3_4                                                   1.000000
c10_4_33                                                  1.000000
c10_33_34                                                 1.000000
c10_34_35                                                 1.000000
c10_35_58                                                 1.000000
c10_56_55                                                 1.000000
c10_57_56                                                 1.000000
c10_58_57                                                 1.000000
c11_21_6                                                  1.000000
c11_6_25                                                  1.000000
c11_13_14                                                 1.000000
c11_54_13                                                 1.000000
c11_14_21                                                 1.000000
c11_25_24                                                 1.000000
c11_24_53                                                 1.000000
c11_53_54                                                 1.000000
c12_27_23                                                 1.000000
c12_23_59                                                 1.000000
c12_28_27                                                 1.000000
c12_59_28                                                 1.000000
c13_4_5                                                   1.000000
c13_33_4                                                  1.000000
c13_5_11                                                  1.000000
c13_11_12                                                 1.000000
c13_12_45                                                 1.000000
c13_32_33                                                 1.000000
c13_47_32                                                 1.000000
c13_45_46                                                 1.000000
c13_46_47                                                 1.000000
c14_31_32                                                 1.000000
c14_47_31                                                 1.000000
c14_32_47                                                 1.000000
c15_0_2                                                   1.000000
c15_54_0                                                  1.000000
c15_2_55                                                  1.000000
c15_55_54                                                 1.000000
c16_5_18                                                  1.000000
c16_41_5                                                  1.000000
c16_18_19                                                 1.000000
c16_19_20                                                 1.000000
c16_20_38                                                 1.000000
c16_32_31                                                 1.000000
c16_31_41                                                 1.000000
c16_33_32                                                 1.000000
c16_34_33                                                 1.000000
c16_39_34                                                 1.000000
c16_38_39                                                 1.000000
c17_34_39                                                 1.000000
c17_40_34                                                 1.000000
c17_39_40                                                 1.000000
c18_48_12                                                 1.000000
c18_12_56                                                 1.000000
c18_30_31                                                 1.000000
c18_57_30                                                 1.000000
c18_31_47                                                 1.000000
c18_47_48                                                 1.000000
c18_56_57                                                 1.000000
c19_35_36                                                 1.000000
c19_58_35                                                 1.000000
c19_36_37                                                 1.000000
c19_37_58                                                 1.000000
c20_14_15                                                 1.000000
c20_21_14                                                 1.000000
c20_15_20                                                 1.000000
c20_20_21                                                 1.000000
c21_26_12                                                 1.000000
c21_12_48                                                 1.000000
c21_24_23                                                 1.000000
c21_23_27                                                 1.000000
c21_35_24                                                 1.000000
c21_27_26                                                 1.000000
c21_36_35                                                 1.000000
c21_49_36                                                 1.000000
c21_48_49                                                 1.000000
c22_12_26                                                 1.000000
c22_45_12                                                 1.000000
c22_26_41                                                 1.000000
c22_41_40                                                 1.000000
c22_40_42                                                 1.000000
c22_42_45                                                 1.000000
c23_4_7                                                   1.000000
c23_17_4                                                  1.000000
c23_7_8                                                   1.000000
c23_8_19                                                  1.000000
c23_38_17                                                 1.000000
c23_19_25                                                 1.000000
c23_25_29                                                 1.000000
c23_29_30                                                 1.000000
c23_30_57                                                 1.000000
c23_37_38                                                 1.000000
c23_58_37                                                 1.000000
c23_57_58                                                 1.000000
c24_0_40                                                  1.000000
c24_59_0                                                  1.000000
c24_29_28                                                 1.000000
c24_28_59                                                 1.000000
c24_30_29                                                 1.000000
c24_31_30                                                 1.000000
c24_41_31                                                 1.000000
c24_40_41                                                 1.000000
c25_9_8                                                   1.000000
c25_8_10                                                  1.000000
c25_10_9                                                  1.000000
c26_20_19                                                 1.000000
c26_19_44                                                 1.000000
c26_21_20                                                 1.000000
c26_22_21                                                 1.000000
c26_23_22                                                 1.000000
c26_44_23                                                 1.000000
c27_6_7                                                   1.000000
c27_9_6                                                   1.000000
c27_7_51                                                  1.000000
c27_42_9                                                  1.000000
c27_45_42                                                 1.000000
c27_46_45                                                 1.000000
c27_51_46                                                 1.000000
c28_15_16                                                 1.000000
c28_20_15                                                 1.000000
c28_16_17                                                 1.000000
c28_17_38                                                 1.000000
c28_38_20                                                 1.000000
c29_47_46                                                 1.000000
c29_46_51                                                 1.000000
c29_48_47                                                 1.000000
c29_50_48                                                 1.000000
c29_51_50                                                 1.000000
c30_5_6                                                   1.000000
c30_11_5                                                  1.000000
c30_6_9                                                   1.000000
c30_9_10                                                  1.000000
c30_10_11                                                 1.000000
c31_1_0                                                   1.000000
c31_0_59                                                  1.000000
c31_59_1                                                  1.000000
c32_39_38                                                 1.000000
c32_38_53                                                 1.000000
c32_52_39                                                 1.000000
c32_53_52                                                 1.000000
c33_25_26                                                 1.000000
c33_29_25                                                 1.000000
c33_26_27                                                 1.000000
c33_27_28                                                 1.000000
c33_28_29                                                 1.000000
c34_3_2                                                   1.000000
c34_2_43                                                  1.000000
c34_52_3                                                  1.000000
c34_40_39                                                 1.000000
c34_39_52                                                 1.000000
c34_42_40                                                 1.000000
c34_43_42                                                 1.000000
c35_40_0                                                  1.000000
c35_0_54                                                  1.000000
c35_38_37                                                 1.000000
c35_37_40                                                 1.000000
c35_53_38                                                 1.000000
c35_54_53                                                 1.000000
c36_18_17                                                 1.000000
c36_17_22                                                 1.000000
c36_19_18                                                 1.000000
c36_25_19                                                 1.000000
c36_22_23                                                 1.000000
c36_23_24                                                 1.000000
c36_24_25                                                 1.000000
c37_12_13                                                 1.000000
c37_56_12                                                 1.000000
c37_13_54                                                 1.000000
c37_54_55                                                 1.000000
c37_55_56                                                 1.000000
p0_2_1                                                    1.000000
p0_54_2                                                   1.000000
p0_59_40                                                  1.000000
p0_40_54                                                  1.000000
p0_1_59                                                   1.000000
p1_0_2_59                                                 1.000000
p2_43_1                                                   1.000000
p2_1_0                                                    1.000000
p2_55_3                                                   1.000000
p2_3_43                                                   1.000000
p2_0_55                                                   1.000000
p3_2_4_52                                                 1.000000
p4_7_3                                                    1.000000
p4_33_5                                                   1.000000
p4_17_7                                                   1.000000
p4_5_17                                                   1.000000
p4_3_33                                                   1.000000
p5_18_4                                                   1.000000
p5_11_6                                                   1.000000
p5_4_11                                                   1.000000
p5_41_18                                                  1.000000
p5_6_41                                                   1.000000
p6_25_5                                                   1.000000
p6_9_7                                                    1.000000
p6_5_9                                                    1.000000
p6_7_21                                                   1.000000
p6_21_25                                                  1.000000
p7_8_6                                                    1.000000
p7_51_4                                                   1.000000
p7_4_8                                                    1.000000
p7_6_51                                                   1.000000
p8_16_7                                                   1.000000
p8_19_9                                                   1.000000
p8_9_10                                                   1.000000
p8_10_16                                                  1.000000
p8_7_19                                                   1.000000
p9_10_8                                                   1.000000
p9_42_6                                                   1.000000
p9_6_10                                                   1.000000
p9_8_42                                                   1.000000
p11_10_5_12                                               1.000000
p12_13_11                                                 1.000000
p12_56_13                                                 1.000000
p12_45_26                                                 1.000000
p12_11_45                                                 1.000000
p12_26_48                                                 1.000000
p12_48_56                                                 1.000000
p17_22_16                                                 1.000000
p17_38_4                                                  1.000000
p17_4_18                                                  1.000000
p17_18_22                                                 1.000000
p17_16_38                                                 1.000000
p18_17_5_19                                               1.000000
p19_25_18                                                 1.000000
p19_44_8                                                  1.000000
p19_18_20                                                 1.000000
p19_8_25                                                  1.000000
p19_20_44                                                 1.000000
p20_21_19                                                 1.000000
p20_38_15                                                 1.000000
p20_15_21                                                 1.000000
p20_19_38                                                 1.000000
p21_22_20                                                 1.000000
p21_20_14                                                 1.000000
p21_14_6                                                  1.000000
p21_6_22                                                  1.000000
p22_21_17_23                                              1.000000
p23_44_22                                                 1.000000
p23_22_24                                                 1.000000
p23_24_27                                                 1.000000
p23_59_44                                                 1.000000
p23_27_59                                                 1.000000
p24_35_23                                                 1.000000
p24_23_25                                                 1.000000
p24_53_35                                                 1.000000
p24_25_53                                                 1.000000
p25_6_24                                                  1.000000
p25_24_19                                                 1.000000
p25_26_6                                                  1.000000
p25_29_26                                                 1.000000
p25_19_29                                                 1.000000
p26_41_25                                                 1.000000
p26_27_12                                                 1.000000
p26_25_27                                                 1.000000
p26_12_41                                                 1.000000
p28_27_29_59                                              1.000000
p29_28_25_30                                              1.000000
p31_41_30                                                 1.000000
p31_47_32                                                 1.000000
p31_32_41                                                 1.000000
p31_30_47                                                 1.000000
p33_32_4_34                                               1.000000
p34_39_33                                                 1.000000
p34_33_35                                                 1.000000
p34_40_39                                                 1.000000
p34_49_40                                                 1.000000
p34_35_49                                                 1.000000
p35_24_34                                                 1.000000
p35_36_24                                                 1.000000
p35_58_36                                                 1.000000
p35_34_58                                                 1.000000
p36_35_37_49                                              1.000000
p37_40_36                                                 1.000000
p37_58_38                                                 1.000000
p37_38_40                                                 1.000000
p37_36_58                                                 1.000000
p38_53_37                                                 1.000000
p38_17_20                                                 1.000000
p38_37_17                                                 1.000000
p38_20_39                                                 1.000000
p38_39_53                                                 1.000000
p39_52_38                                                 1.000000
p39_38_34                                                 1.000000
p39_34_40                                                 1.000000
p39_40_52                                                 1.000000
p40_42_39                                                 1.000000
p40_34_37                                                 1.000000
p40_39_34                                                 1.000000
p40_0_41                                                  1.000000
p40_37_0                                                  1.000000
p40_41_42                                                 1.000000
p41_26_40                                                 1.000000
p41_40_31                                                 1.000000
p41_5_26                                                  1.000000
p41_31_5                                                  1.000000
p42_43_40                                                 1.000000
p42_45_9                                                  1.000000
p42_9_43                                                  1.000000
p42_40_45                                                 1.000000
p43_42_44_2                                               1.000000
p45_42_12_46                                              1.000000
p46_45_47_51                                              1.000000
p47_48_46                                                 1.000000
p47_46_32                                                 1.000000
p47_32_31                                                 1.000000
p47_31_48                                                 1.000000
p48_50_47                                                 1.000000
p48_12_49                                                 1.000000
p48_47_12                                                 1.000000
p48_49_50                                                 1.000000
p49_48_36_34                                              1.000000
p52_3_50                                                  1.000000
p52_53_39                                                 1.000000
p52_39_3                                                  1.000000
p52_50_53                                                 1.000000
p53_38_52                                                 1.000000
p53_54_38                                                 1.000000
p53_52_24                                                 1.000000
p53_24_54                                                 1.000000
p54_0_53                                                  1.000000
p54_53_13                                                 1.000000
p54_13_55                                                 1.000000
p54_55_0                                                  1.000000
p55_54_56_2                                               1.000000
p58_57_37_35                                              1.000000
p59_23_28                                                 1.000000
p59_1_23                                                  1.000000
p59_0_1                                                   1.000000
p59_28_0                                                  1.000000
x12912                                                    19.000000
